510000
510000
510000
510000
510000
510000
270000
270000
270000
270000
270000
270000
260000
260000
260000
260000
260000
260000
230000
230000
230000
230000
230000
230000
230000
230000
230000
230000
230000
230000